SAT problem/sat_in/bonus/15.wcnf
p wcnf 5 12 26
26 1 2 0
26 1 3 0
26 1 5 0
26 2 4 0
26 2 5 0
26 3 4 0
26 3 5 0
4 -1 0
4 -2 0
4 -3 0
5 -4 0
4 -5 0
