SAT problem/sat_in/task3/15.cnf
p cnf 10 21
4 7 11 16 22 0
8 12 17 23 30 0
-4 -8 0
-7 -12 0
-11 -17 0
-16 -23 0
-22 -30 0
-4 -12 0
-4 -17 0
-4 -30 0
-7 -23 0
-7 -30 0
-11 -23 0
-11 -30 0
-8 -7 0
-8 -11 0
-8 -22 0
-12 -16 0
-12 -22 0
-17 -16 0
-17 -22 0
